NAME : portcgen-25-28
COMMENT : portcgen N=25, seed=28
TYPE : TSP
DIMENSION : 25
EDGE_WEIGHT_TYPE : EUC_2D
NODE_COORD_SECTION
1 141232 -103893
2 222822 -198909
3 -187399 338005
4 -110058 75127
5 -150858 -25597
6 -401720 -106791
7 224078 -226312
8 -15999 393979
9 50683 212197
10 -211661 329682
11 -33984 81666
12 267686 -329862
13 329877 -183259
14 -194187 -159033
15 -5892 -6744
16 193758 -205484
17 214422 -6344
18 -157067 -159796
19 -86727 -133498
20 397380 -28393
21 240877 27274
22 -134201 8228
23 -192225 -95883
24 -42047 53582
25 207229 -302801
